param n :=3;  # number of suppliers
param m :=3; # number of valve types


param A:   1 2 3 := 
           1       .40 .30 .20    
           2       .40 .35 .20
           3       .20 .35 .60;

      
param b := 
          1 500
          2 300
          3 300; 


param c := 
          1  5 
          2  4
          3  3; 

